outputs/case_241.model.txt
fhc_internal_control_executed = True
fhc_internal_control_established = True
internal_control_executed = True
internal_control_established = True
penalty = False
internal_control_compliance = True